SDVRP instances/custom_instances/p03_13_splitx10_0.vrp
NAME:p03_13_splitx10_
BEST_KNOWN: 0
COMMENT: 0
DIMENSION: 446
CAPACITY: 2000
EDGE_WEIGHT_FORMAT: FUNCTION
EDGE_WEIGHT_TYPE: EXACT_2D
NODE_COORD_SECTION
1 0.00000 0.00000
2 2 12
3 2 12
4 -43 39
5 -43 39
6 39 -3
7 39 -3
8 39 -3
9 39 -3
10 39 -3
11 -12 -9
12 -12 -9
13 -12 -9
14 -12 -9
15 -12 -9
16 -27 6
17 -27 6
18 44 4
19 44 4
20 44 4
21 44 4
22 44 4
23 44 4
24 17 -9
25 17 -9
26 17 -9
27 17 -9
28 17 -9
29 17 -9
30 24 -47
31 24 -47
32 24 -47
33 24 -47
34 24 -47
35 24 -47
36 7 7
37 7 7
38 7 7
39 7 7
40 7 7
41 -29 -35
42 -29 -35
43 -29 -35
44 -29 -35
45 -29 -35
46 -29 -35
47 -9 -3
48 -9 -3
49 -9 -3
50 -9 -3
51 -9 -3
52 8 46
53 8 46
54 8 46
55 8 46
56 8 46
57 8 46
58 -27 49
59 -27 49
60 -27 49
61 -27 49
62 43 -30
63 43 -30
64 43 -30
65 43 -30
66 -44 5
67 -44 5
68 -44 5
69 -44 5
70 -44 5
71 -29 -46
72 -29 -46
73 -29 -46
74 -29 -46
75 -45 33
76 -45 33
77 -45 33
78 -45 33
79 -45 33
80 -35 48
81 -35 48
82 -35 48
83 -35 48
84 9 -4
85 9 -4
86 9 -4
87 9 -4
88 9 -4
89 9 -4
90 10 -4
91 10 -4
92 10 -4
93 -41 -47
94 -41 -47
95 -41 -47
96 -32 22
97 -32 22
98 -32 22
99 -32 22
100 -32 22
101 -32 22
102 41 -5
103 41 -5
104 -40 33
105 -40 33
106 -2 -8
107 -2 -8
108 -2 -8
109 -2 -8
110 -2 -8
111 26 -34
112 26 -34
113 26 -34
114 36 24
115 36 24
116 36 24
117 36 24
118 36 24
119 36 24
120 -8 4
121 -8 4
122 -8 4
123 -8 4
124 2 44
125 2 44
126 2 44
127 2 44
128 2 44
129 -23 -23
130 -23 -23
131 -23 -23
132 -23 -23
133 14 -19
134 14 -19
135 14 -19
136 10 16
137 10 16
138 10 16
139 10 16
140 10 16
141 10 16
142 10 16
143 10 16
144 13 2
145 13 2
146 13 2
147 13 2
148 13 2
149 13 2
150 13 2
151 34 35
152 34 35
153 34 35
154 34 35
155 34 35
156 34 35
157 -15 49
158 -15 49
159 -15 49
160 -15 49
161 -49 1
162 -49 1
163 -49 1
164 -49 1
165 -49 1
166 -42 -15
167 -42 -15
168 -42 -15
169 -42 -15
170 -46 -2
171 -46 -2
172 -46 -2
173 -9 3
174 -9 3
175 -9 3
176 -14 -11
177 -14 -11
178 -14 -11
179 -14 -11
180 -14 -11
181 -14 -11
182 -23 -9
183 -23 -9
184 -23 -9
185 -26 -22
186 -26 -22
187 -26 -22
188 -26 -22
189 -26 -22
190 -20 50
191 -20 50
192 -20 50
193 -9 -44
194 -9 -44
195 -9 -44
196 -9 -44
197 -9 -44
198 -9 -44
199 -25 -17
200 -25 -17
201 -25 -17
202 -25 -17
203 12 9
204 12 9
205 -27 4
206 -27 4
207 -27 4
208 -27 4
209 -27 4
210 -27 4
211 -10 -7
212 -10 -7
213 -10 -7
214 -10 -7
215 27 -10
216 27 -10
217 27 -10
218 27 -10
219 27 -10
220 27 -10
221 14 -43
222 14 -43
223 14 -43
224 14 -43
225 14 -43
226 48 12
227 48 12
228 48 12
229 48 12
230 -48 25
231 -48 25
232 -48 25
233 -48 25
234 -48 25
235 -48 25
236 11 25
237 11 25
238 11 25
239 11 25
240 41 -15
241 41 -15
242 41 -15
243 41 -15
244 41 -15
245 39 1
246 39 1
247 39 1
248 22 12
249 22 12
250 22 12
251 30 29
252 30 29
253 30 29
254 30 29
255 30 29
256 30 29
257 27 -39
258 27 -39
259 27 -39
260 27 -39
261 27 -39
262 11 -43
263 11 -43
264 11 -43
265 11 -43
266 11 -43
267 11 -43
268 -9 49
269 -9 49
270 -9 49
271 -9 49
272 26 -47
273 26 -47
274 26 14
275 26 14
276 26 14
277 26 14
278 16 16
279 16 16
280 16 16
281 16 16
282 16 16
283 -15 30
284 -15 30
285 -15 30
286 -15 30
287 -15 30
288 -15 30
289 3 40
290 3 40
291 3 40
292 3 40
293 3 40
294 -30 31
295 -30 31
296 -30 31
297 -30 31
298 -30 31
299 -30 31
300 -30 31
301 -30 31
302 44 15
303 44 15
304 44 15
305 -35 9
306 -35 9
307 -35 9
308 -35 9
309 -35 9
310 -48 -16
311 -48 -16
312 -48 -16
313 -48 -16
314 7 -2
315 7 -2
316 7 -2
317 7 -2
318 -6 1
319 -6 1
320 -14 0
321 -14 0
322 -14 0
323 -14 0
324 8 38
325 8 38
326 8 38
327 8 38
328 8 38
329 8 38
330 8 38
331 5 45
332 5 45
333 5 45
334 5 45
335 15 -16
336 15 -16
337 15 -16
338 15 -16
339 15 -16
340 15 -16
341 15 -16
342 45 -43
343 45 -43
344 45 -43
345 45 -43
346 45 -43
347 45 -43
348 45 -43
349 45 -43
350 -18 -23
351 -18 -23
352 -18 -23
353 -18 -23
354 -44 42
355 -44 42
356 -44 42
357 -44 42
358 23 8
359 23 8
360 23 8
361 23 8
362 -20 26
363 -20 26
364 -20 26
365 -20 26
366 -20 26
367 -20 26
368 -20 26
369 7 38
370 7 38
371 7 38
372 7 38
373 7 38
374 7 38
375 37 -49
376 37 -49
377 37 -49
378 37 -49
379 37 -49
380 38 9
381 38 9
382 38 9
383 38 9
384 -41 -14
385 -41 -14
386 -41 -14
387 21 -30
388 21 -30
389 21 -30
390 21 -30
391 21 -30
392 21 -30
393 -17 -9
394 -17 -9
395 -37 -28
396 -37 -28
397 -37 -28
398 -33 32
399 -33 32
400 -33 32
401 -33 32
402 -33 32
403 -33 32
404 20 -21
405 20 -21
406 20 -21
407 20 -21
408 -50 35
409 -50 35
410 -50 35
411 -50 35
412 -8 -32
413 -8 -32
414 -8 -32
415 -8 -32
416 -24 -23
417 -24 -23
418 -24 -23
419 -24 -23
420 10 40
421 10 40
422 10 40
423 2 -10
424 2 -10
425 2 -10
426 2 -10
427 0 40
428 0 40
429 0 40
430 3 -47
431 3 -47
432 3 -47
433 2 -12
434 2 -12
435 2 -12
436 2 -12
437 2 -12
438 7 13
439 7 13
440 15 -40
441 15 -40
442 15 -40
443 -30 43
444 -30 43
445 -30 43
446 -30 43
DEMAND_SECTION
1 0
2 200
3 100
4 400
5 400
6 400
7 400
8 100
9 20
10 20
11 400
12 100
13 20
14 20
15 20
16 400
17 400
18 400
19 20
20 20
21 20
22 20
23 10
24 400
25 400
26 100
27 20
28 20
29 10
30 400
31 200
32 100
33 20
34 20
35 10
36 200
37 20
38 20
39 20
40 20
41 400
42 200
43 20
44 20
45 20
46 20
47 400
48 200
49 100
50 20
51 10
52 400
53 200
54 20
55 20
56 20
57 20
58 400
59 200
60 100
61 10
62 400
63 200
64 20
65 10
66 400
67 400
68 100
69 20
70 10
71 400
72 400
73 100
74 10
75 400
76 200
77 100
78 20
79 20
80 200
81 20
82 20
83 10
84 400
85 200
86 100
87 20
88 20
89 20
90 400
91 100
92 20
93 200
94 100
95 10
96 400
97 400
98 20
99 20
100 20
101 10
102 200
103 100
104 400
105 100
106 400
107 400
108 20
109 20
110 10
111 400
112 200
113 20
114 400
115 20
116 20
117 20
118 20
119 10
120 400
121 400
122 100
123 20
124 400
125 400
126 20
127 20
128 20
129 400
130 20
131 20
132 20
133 400
134 400
135 10
136 400
137 400
138 100
139 20
140 20
141 20
142 20
143 10
144 400
145 100
146 20
147 20
148 20
149 20
150 10
151 200
152 100
153 20
154 20
155 20
156 20
157 400
158 20
159 20
160 10
161 400
162 200
163 20
164 20
165 20
166 400
167 400
168 20
169 10
170 400
171 100
172 10
173 400
174 200
175 10
176 400
177 100
178 20
179 20
180 20
181 10
182 400
183 200
184 100
185 400
186 400
187 100
188 20
189 20
190 400
191 100
192 20
193 400
194 100
195 20
196 20
197 20
198 10
199 400
200 20
201 20
202 10
203 400
204 100
205 400
206 100
207 20
208 20
209 20
210 10
211 400
212 400
213 20
214 20
215 200
216 100
217 20
218 20
219 20
220 10
221 400
222 200
223 20
224 20
225 20
226 200
227 20
228 20
229 20
230 400
231 200
232 20
233 20
234 20
235 20
236 200
237 20
238 20
239 20
240 400
241 200
242 100
243 20
244 10
245 400
246 400
247 10
248 400
249 20
250 20
251 200
252 100
253 20
254 20
255 20
256 10
257 400
258 200
259 20
260 20
261 20
262 400
263 400
264 20
265 20
266 20
267 20
268 400
269 400
270 100
271 20
272 400
273 200
274 400
275 400
276 20
277 20
278 400
279 100
280 20
281 20
282 20
283 400
284 400
285 20
286 20
287 20
288 20
289 400
290 200
291 100
292 20
293 20
294 400
295 400
296 100
297 20
298 20
299 20
300 20
301 10
302 400
303 100
304 20
305 400
306 20
307 20
308 20
309 10
310 400
311 20
312 20
313 10
314 400
315 20
316 20
317 20
318 400
319 100
320 200
321 100
322 20
323 20
324 400
325 200
326 20
327 20
328 20
329 20
330 10
331 200
332 20
333 20
334 20
335 400
336 200
337 100
338 20
339 20
340 20
341 20
342 400
343 200
344 100
345 20
346 20
347 20
348 20
349 10
350 400
351 100
352 20
353 10
354 400
355 200
356 20
357 20
358 400
359 200
360 100
361 20
362 400
363 200
364 20
365 20
366 20
367 20
368 10
369 400
370 400
371 20
372 20
373 20
374 20
375 400
376 400
377 20
378 20
379 20
380 400
381 20
382 20
383 20
384 200
385 100
386 20
387 400
388 200
389 20
390 20
391 20
392 10
393 400
394 400
395 200
396 100
397 20
398 200
399 100
400 20
401 20
402 20
403 20
404 400
405 200
406 100
407 20
408 200
409 20
410 20
411 10
412 400
413 200
414 20
415 10
416 400
417 100
418 20
419 20
420 400
421 20
422 20
423 200
424 100
425 20
426 10
427 400
428 100
429 10
430 400
431 200
432 100
433 400
434 200
435 100
436 20
437 20
438 400
439 400
440 400
441 400
442 100
443 200
444 100
445 20
446 20
DEPOT_SECTION
1
-1
EOF