SDVRP instances/custom_instances/p03_13_splitx10_0.sol
445 -2 1 286 282 283 361 362 365 364 363 367 366 -6 8 9 5 7 102 101 240 241 239 242 243 -14 11 12 10 13 176 179 177 180 178 175 393 392 -15 16 164 163 161 162 160 171 169 170 -35 39 136 135 139 140 138 137 141 437 438 -38 37 36 118 115 117 114 113 116 302 301 303 228 226 227 225 380 382 379 381 359 360 -41 42 44 43 40 45 92 93 94 72 73 71 70 -49 50 47 48 46 210 213 211 212 -88 84 86 26 24 23 27 28 25 335 334 336 340 339 337 338 -104 103 4 3 354 355 356 353 399 401 400 -106 108 107 105 109 434 433 432 424 425 422 423 -111 271 272 33 29 30 32 31 34 222 224 220 -112 110 376 378 377 374 375 257 260 258 256 259 -121 119 120 173 172 318 317 -122 95 99 98 100 97 96 296 300 298 294 293 295 297 299 -128 129 130 131 418 415 417 416 187 184 188 186 185 -133 134 132 390 388 391 386 387 389 406 403 405 -142 236 238 235 237 324 325 327 371 373 368 369 372 370 288 289 -144 143 91 90 89 87 83 85 313 315 316 314 -148 147 149 145 146 246 244 245 22 18 21 20 19 17 357 358 -159 157 158 156 267 269 268 270 426 428 427 -174 306 305 304 307 308 66 69 65 67 68 207 206 208 209 204 205 -199 396 394 395 309 311 310 312 165 167 166 168 385 383 384 -203 202 247 248 249 274 276 273 275 278 280 279 281 -218 216 219 215 217 214 64 62 61 63 343 346 344 347 345 341 342 348 404 -233 230 231 232 229 234 410 408 409 407 76 75 77 78 74 398 397 402 -265 264 263 261 262 266 223 221 441 439 440 -277 252 251 255 254 250 253 154 155 152 151 150 153 419 420 421 329 323 -284 285 287 190 191 189 59 57 58 60 81 79 80 82 444 443 445 442 -291 292 290 124 126 127 123 125 330 331 332 333 52 53 54 56 51 55 326 328 -321 322 319 320 182 181 183 198 200 201 349 351 350 352 -413 414 412 411 195 193 197 192 194 196 431 430 429 436 435 0 





OBJ=
2761.472
BEST_KNOWN=
0.000